WARNING: for repeatability, setting FPU to use double precision
============================[ Problem Statistics ]=============================
|                                                                             |
|  Number of variables:           100                                         |
|  Number of clauses:             449                                         |
|  Parse time:                   0.00 s                                       |
|  Eliminated clauses:           0.00 Mb                                      |
|  Simplification time:          0.00 s                                       |
|                                                                             |
============================[ Search Statistics ]==============================
| Conflicts |          ORIGINAL         |          LEARNT          | Progress |
|           |    Vars  Clauses Literals |    Limit  Clauses Lit/Cl |          |
===============================================================================
|       100 |      98      439     1319 |      160      100      8 |  0.010 % |
===============================================================================
restarts              : 2
conflicts             : 149            (51291 /sec)
decisions             : 195            (0.00 % random) (67126 /sec)
propagations          : 3249           (1118417 /sec)
conflict literals     : 1149           (10.23 % deleted)
Memory used           : 13.00 MB
CPU time              : 0.002905 s

SATISFIABLE
